c   #vars: 117   #clauses: 537   #literals: 1462
c 
p cnf 117 537
-1 -2 0
-3 -4 0
-5 -6 0
-7 -8 0
-5 53 76 77 0
-10 -11 0
17 18 108 109 0
25 26 68 69 0
-12 -13 0
39 40 60 -74 0
-15 -16 0
-17 -18 0
-19 -20 0
-21 -22 0
-23 -24 0
47 48 103 104 0
39 40 61 62 0
-25 -26 0
-27 -28 0
-29 -30 0
-31 -32 0
-33 -34 0
-35 -36 0
-37 -38 0
-39 -40 0
-41 -42 0
-43 -44 0
-45 -46 0
29 30 112 113 0
-47 -48 0
-49 -50 0
-51 -52 0
25 26 -65 107 0
-54 -55 0
-56 -57 0
-58 -59 0
35 36 65 -107 0
39 40 65 -107 0
54 55 114 115 0
-61 -62 0
93 94 103 104 0
80 81 103 104 0
-63 -64 0
-43 47 48 79 0
-66 -67 0
-68 -69 0
-70 -71 0
-72 -73 0
-74 -75 0
-76 -77 0
-35 65 -104 107 0
-72 91 92 99 0
-80 -81 0
-82 -83 0
-84 -85 0
-87 -88 0
-89 -90 0
-91 -92 0
-93 -94 0
-95 -96 0
-97 -98 0
-101 -102 0
-103 -104 0
39 40 103 104 0
14 45 46 -95 0
58 59 87 88 0
74 75 87 88 0
23 24 25 26 0
-105 -106 0
29 30 105 106 0
-108 -109 0
12 13 110 111 0
-110 -111 0
-112 -113 0
72 73 95 96 0
58 59 108 109 0
-114 -115 0
3 4 63 64 0
-116 -117 0
9 -95 101 102 0
-1 -5 0
-2 -6 0
29 30 -43 79 0
-1 -27 0
-2 -28 0
12 13 108 109 0
-1 -56 0
-2 -57 0
7 8 41 42 0
-1 -116 0
-2 -117 0
-3 -19 0
-4 -20 0
1 2 5 6 0
-3 -43 0
-4 -44 0
95 96 100 -110 0
-3 -56 0
-4 -57 0
-45 61 62 78 0
-3 -63 0
-4 -64 0
89 90 114 115 0
-3 -103 0
-4 -104 0
-5 -10 0
-6 -11 0
25 26 -104 107 0
-6 -53 0
-5 -82 0
-6 -83 0
21 22 51 52 0
100 110 111 -112 0
-29 39 40 60 0
-8 -14 0
5 6 10 11 0
-7 -41 0
-8 -42 0
54 55 66 67 0
-7 -47 0
-8 -48 0
-26 -35 65 107 0
-7 -49 0
-8 -50 0
17 18 25 26 0
-7 -108 0
-8 -109 0
23 24 53 -76 0
-9 -57 0
33 34 58 59 0
9 56 57 -101 0
25 26 97 98 0
-5 23 24 53 0
-9 -96 0
108 109 112 113 0
5 6 53 -76 0
-9 -102 0
-10 -12 0
-11 -13 0
-33 72 73 99 0
-10 -49 0
-11 -50 0
7 8 47 48 0
-10 -51 0
-11 -52 0
39 40 76 77 0
-10 -61 0
-11 -62 0
82 83 95 96 0
17 18 -61 78 0
7 8 108 109 0
17 18 -45 78 0
3 4 19 20 0
-12 -17 0
-13 -18 0
-12 -82 0
-13 -83 0
15 16 70 71 0
-12 -108 0
-13 -109 0
12 13 17 18 0
-12 -110 0
-13 -111 0
31 32 41 42 0
-39 60 74 75 0
-14 -46 0
54 55 76 77 0
-29 60 75 0
-14 -96 0
23 24 70 71 0
-15 -41 0
-16 -42 0
19 20 23 24 0
-15 -45 0
-16 -46 0
9 95 96 -101 0
-15 -70 0
-16 -71 0
-15 -80 0
-16 -81 0
-15 -87 0
-16 -88 0
21 22 105 106 0
-15 -95 0
-16 -96 0
-17 -25 0
-18 -26 0
15 16 95 96 0
-17 -41 0
-18 -42 0
-39 41 42 86 0
-18 -78 0
-7 14 45 46 0
-17 -108 0
-18 -109 0
19 20 27 28 0
-19 -23 0
-20 -24 0
27 28 63 64 0
-19 -27 0
-20 -28 0
1 2 27 28 0
-19 -31 0
-20 -32 0
21 22 76 77 0
-19 -82 0
-20 -83 0
-21 -51 0
-22 -52 0
37 38 112 113 0
-21 -76 0
-22 -77 0
27 28 74 75 0
-21 -103 0
-22 -104 0
54 55 70 71 0
-21 -105 0
-22 -106 0
31 32 70 71 0
-23 -25 0
-24 -26 0
29 30 66 67 0
-26 103 104 107 0
-24 -53 0
89 90 95 96 0
-23 -70 0
-24 -71 0
-24 -86 0
19 20 31 32 0
-23 -91 0
-24 -92 0
23 24 -41 86 0
10 11 61 62 0
23 24 -39 86 0
66 67 93 94 0
-25 -61 0
-26 -62 0
5 6 82 83 0
-25 -68 0
-26 -69 0
-25 -97 0
-26 -98 0
-25 -107 0
10 11 12 13 0
-25 -110 0
-26 -111 0
27 28 37 38 0
-27 -37 0
-28 -38 0
-27 -63 0
-28 -64 0
-39 65 -104 107 0
-27 -74 0
-28 -75 0
9 -56 101 102 0
-29 -33 0
-30 -34 0
-29 -35 0
-30 -36 0
72 73 -91 99 0
35 36 -39 65 0
-30 -60 0
43 44 68 69 0
-29 -66 0
-30 -67 0
31 32 76 77 0
-29 -74 0
-30 -75 0
51 52 105 106 0
-33 91 92 99 0
-30 -79 0
25 26 110 111 0
-29 -105 0
-30 -106 0
54 55 108 109 0
-29 -112 0
-30 -113 0
35 36 110 111 0
-31 -41 0
-32 -42 0
35 36 97 98 0
-31 -47 0
-32 -48 0
-95 100 112 113 0
-31 -70 0
-32 -71 0
29 30 -47 79 0
-31 -76 0
-32 -77 0
-31 -80 0
-32 -81 0
68 69 80 81 0
-33 -58 0
-34 -59 0
-34 -99 0
-33 -114 0
-34 -115 0
30 60 -74 0
-29 47 48 79 0
-36 -65 0
15 16 45 46 0
-35 -87 0
-36 -88 0
-35 -97 0
-36 -98 0
-17 61 62 78 0
-35 -110 0
-36 -111 0
3 4 43 44 0
-37 -49 0
-38 -50 0
-37 -54 0
-38 -55 0
14 -45 95 96 0
-37 -89 0
-38 -90 0
15 16 87 88 0
-37 -112 0
-38 -113 0
15 16 41 42 0
-40 -60 0
25 26 61 62 0
-39 -61 0
-40 -62 0
-23 39 40 86 0
43 44 -47 79 0
-40 -65 0
31 32 80 81 0
-39 -76 0
-40 -77 0
84 85 93 94 0
-40 -86 0
-39 -101 0
-40 -102 0
41 42 105 106 0
-39 -103 0
-40 -104 0
72 73 112 113 0
-42 -86 0
-41 -105 0
-42 -106 0
-41 -112 0
-42 -113 0
-43 -68 0
-44 -69 0
3 4 56 57 0
-43 -72 0
-44 -73 0
35 36 87 88 0
33 34 -91 99 0
-44 -79 0
1 2 56 57 0
49 50 97 98 0
-45 -58 0
-46 -59 0
37 38 49 50 0
-45 -74 0
-46 -75 0
63 64 84 85 0
-23 41 42 86 0
-46 -78 0
10 11 49 50 0
-45 -89 0
-46 -90 0
-65 103 104 107 0
45 46 58 59 0
-47 -51 0
-48 -52 0
51 52 72 73 0
31 32 47 48 0
33 34 -72 99 0
-48 -79 0
-47 -103 0
-48 -104 0
43 44 72 73 0
7 8 49 50 0
7 8 14 -95 0
51 52 110 111 0
-49 -54 0
-50 -55 0
10 11 51 52 0
-49 -91 0
-50 -92 0
84 85 105 106 0
-49 -97 0
-50 -98 0
58 59 66 67 0
-51 -72 0
-52 -73 0
56 57 58 59 0
-51 -105 0
-52 -106 0
-35 39 40 65 0
-51 -110 0
-52 -111 0
70 71 80 81 0
9 56 57 -95 0
29 30 -39 60 0
100 -110 112 113 0
-53 -77 0
68 69 114 115 0
-54 -66 0
-55 -67 0
45 46 -61 78 0
-54 -70 0
-55 -71 0
15 16 80 81 0
-54 -76 0
-55 -77 0
95 96 100 -112 0
-54 -93 0
-55 -94 0
29 30 74 75 0
-54 -108 0
-55 -109 0
84 85 116 117 0
-54 -114 0
-55 -115 0
-56 -58 0
-57 -59 0
66 67 105 106 0
-58 -66 0
-59 -67 0
45 46 74 75 0
-58 -87 0
-59 -88 0
74 75 101 102 0
-58 -108 0
-59 -109 0
68 69 91 92 0
-60 -75 0
5 6 -23 53 0
87 88 97 98 0
-23 53 76 77 0
112 113 116 117 0
-62 -78 0
-61 -112 0
-62 -113 0
-63 -84 0
-64 -85 0
-17 45 46 78 0
-63 -108 0
-64 -109 0
49 50 54 55 0
-29 43 44 79 0
-66 -93 0
-67 -94 0
19 20 82 83 0
-66 -105 0
-67 -106 0
3 4 103 104 0
-68 -80 0
-69 -81 0
37 38 54 55 0
-68 -91 0
-69 -92 0
1 2 116 117 0
-68 -114 0
-69 -115 0
-70 -80 0
-71 -81 0
-72 -95 0
-73 -96 0
91 92 101 102 0
-73 -99 0
-72 -101 0
-73 -102 0
80 81 87 88 0
-72 -112 0
-73 -113 0
76 77 116 117 0
-74 -87 0
-75 -88 0
9 -56 95 96 0
-74 -101 0
-75 -102 0
41 42 112 113 0
-76 -116 0
-77 -117 0
-80 -87 0
-81 -88 0
12 13 82 83 0
-80 -103 0
-81 -104 0
82 83 89 90 0
-82 -89 0
-83 -90 0
45 46 89 90 0
-82 -95 0
-83 -96 0
37 38 89 90 0
39 40 -41 86 0
-84 -93 0
-85 -94 0
47 48 51 52 0
-84 -105 0
-85 -106 0
17 18 41 42 0
-84 -116 0
-85 -117 0
21 22 103 104 0
-87 -97 0
-88 -98 0
72 73 101 102 0
63 64 108 109 0
7 8 14 -45 0
89 90 91 92 0
-89 -91 0
-90 -92 0
49 50 91 92 0
-89 -95 0
-90 -96 0
-26 -39 65 107 0
-89 -114 0
-90 -115 0
-7 14 95 96 0
-92 -99 0
61 62 112 113 0
-91 -101 0
-92 -102 0
54 55 93 94 0
-93 -103 0
-94 -104 0
-96 -100 0
29 30 33 34 0
-95 100 110 111 0
33 34 114 115 0
-100 -111 0
23 24 91 92 0
-100 -113 0
-103 -107 0
29 30 35 36 0
-108 -112 0
-109 -113 0
39 40 101 102 0
-112 -116 0
-113 -117 0
